# 2.7.2.4_group0_PF00696_30-85~2.7.2.8_group0_PF00696_30-85.sdpA
# All alignment positions within 5\AA of a ligand/cat site passing the sdpA filter.  Column indices start with 0.
42
43
201
206
207
267
